p edge 50 119
e 1 2
e 1 4
e 1 6
e 1 10
e 1 20
e 1 24
e 1 37
e 1 38
e 1 44
e 1 47
e 2 10
e 2 11
e 2 20
e 2 27
e 2 45
e 2 46
e 3 22
e 3 28
e 3 30
e 3 45
e 4 12
e 4 15
e 4 19
e 4 20
e 4 24
e 5 6
e 5 29
e 5 45
e 7 23
e 7 33
e 7 42
e 9 27
e 9 29
e 9 30
e 9 31
e 9 35
e 9 36
e 9 45
e 10 35
e 10 50
e 11 15
e 11 27
e 11 43
e 12 38
e 12 42
e 13 23
e 13 26
e 13 31
e 13 34
e 13 40
e 13 41
e 13 47
e 13 48
e 13 50
e 14 27
e 14 28
e 14 40
e 14 42
e 14 45
e 14 47
e 15 32
e 16 37
e 16 42
e 17 32
e 18 37
e 18 46
e 18 49
e 18 50
e 19 23
e 19 32
e 19 37
e 19 46
e 19 48
e 20 27
e 20 48
e 21 44
e 21 46
e 22 23
e 22 28
e 22 40
e 23 38
e 23 42
e 24 25
e 24 39
e 24 48
e 25 41
e 25 49
e 26 31
e 26 34
e 26 35
e 26 39
e 26 40
e 27 37
e 27 48
e 28 34
e 28 37
e 28 40
e 29 32
e 29 36
e 29 50
e 30 34
e 30 38
e 30 49
e 31 36
e 31 43
e 31 48
e 32 38
e 32 39
e 33 47
e 34 37
e 34 39
e 34 43
e 36 39
e 36 43
e 36 46
e 38 39
e 42 44
e 42 46
e 48 50
